#This is Python generated data file for Pyomo model DCLF.py
#_author_:W. Bukhsh
#Time stamp: 2022-06-23 15:58:45.728862
set LE:=
 1 
 2;
set Z:=
1
;
set G:=
G1
G2
G3
G4
G5
G6
G7
G8
G9
G10
G11
G12
G13
G14
G15
G16
G17
G18
G19
G20
G21
G22
G23
G24
G25
G26
G27
G28
G29
G30
G31
G32
G33
G34
G35
G36
G37
G38
G39
G40
G41
G42
G43
G44
G45
G46
G47
G48
G49
G50
G51
G52
G53
G54
G55
G56
G57
G58
G59
G60
G61
G62
;
set D:=
D1
D2
D3
D4
D5
D6
D7
D8
D9
D10
D11
D12
D13
D14
D15
D16
D17
D18
D19
D20
D21
D22
D23
D24
D25
D26
D27
D28
D29
D30
D31
D32
D33
D34
D35
D36
D37
D38
D39
D40
D41
D42
D43
D44
D45
D46
D47
D48
D49
D50
D51
D52
D53
D54
D55
D56
D57
D58
D59
D60
D61
D62
D63
D64
D65
D66
D67
D68
D69
D70
D71
D72
D73
D74
D75
D76
D77
D78
D79
D80
D81
D82
D83
D84
D85
D86
D87
D88
D89
D90
D91
D92
D93
;
set WIND:=
Jhimpir-1_Wind_PP
Jhimpir-2_Wind_PP
Gharo_Wind_PP
Best-Green_Solar
Appolo-Solar
Crest-Energy_Solar
Quid-e-Azam_Solar
;
set S:=
;
set T:= 
1
2
3
4
;
set TRed:= 
2
3
4
;
set Tstart:= 
1
;
set Tend:= 
4
;
set Sbs:=
;
set GZ:=
G1 1
G2 1
G3 1
G4 1
G5 1
G6 1
G7 1
G8 1
G9 1
G10 1
G11 1
G12 1
G13 1
G14 1
G15 1
G16 1
G17 1
G18 1
G19 1
G20 1
G21 1
G22 1
G23 1
G24 1
G25 1
G26 1
G27 1
G28 1
G29 1
G30 1
G31 1
G32 1
G33 1
G34 1
G35 1
G36 1
G37 1
G38 1
G39 1
G40 1
G41 1
G42 1
G43 1
G44 1
G45 1
G46 1
G47 1
G48 1
G49 1
G50 1
G51 1
G52 1
G53 1
G54 1
G55 1
G56 1
G57 1
G58 1
G59 1
G60 1
G61 1
G62 1
;
set WZ:=
Jhimpir-1_Wind_PP 1
Jhimpir-2_Wind_PP 1
Gharo_Wind_PP 1
Best-Green_Solar 1
Appolo-Solar 1
Crest-Energy_Solar 1
Quid-e-Azam_Solar 1
;
set DZ:=
D1 1
D2 1
D3 1
D4 1
D5 1
D6 1
D7 1
D8 1
D9 1
D10 1
D11 1
D12 1
D13 1
D14 1
D15 1
D16 1
D17 1
D18 1
D19 1
D20 1
D21 1
D22 1
D23 1
D24 1
D25 1
D26 1
D27 1
D28 1
D29 1
D30 1
D31 1
D32 1
D33 1
D34 1
D35 1
D36 1
D37 1
D38 1
D39 1
D40 1
D41 1
D42 1
D43 1
D44 1
D45 1
D46 1
D47 1
D48 1
D49 1
D50 1
D51 1
D52 1
D53 1
D54 1
D55 1
D56 1
D57 1
D58 1
D59 1
D60 1
D61 1
D62 1
D63 1
D64 1
D65 1
D66 1
D67 1
D68 1
D69 1
D70 1
D71 1
D72 1
D73 1
D74 1
D75 1
D76 1
D77 1
D78 1
D79 1
D80 1
D81 1
D82 1
D83 1
D84 1
D85 1
D86 1
D87 1
D88 1
D89 1
D90 1
D91 1
D92 1
D93 1
;
param PD:=
D1 1 1.96
D1 2 1.9040000000000001
D1 3 1.82
D1 4 1.736
D2 1 1.9669999999999999
D2 2 1.9108
D2 3 1.8265
D2 4 1.7422
D3 1 1.9739999999999998
D3 2 1.9176000000000002
D3 3 1.8330000000000002
D3 4 1.7484
D4 1 1.9809999999999999
D4 2 1.9244000000000003
D4 3 1.8395000000000001
D4 4 1.7546000000000002
D5 1 1.9879999999999998
D5 2 1.9312
D5 3 1.8459999999999999
D5 4 1.7608000000000001
D6 1 1.995
D6 2 1.9380000000000002
D6 3 1.8525
D6 4 1.767
D7 1 2.002
D7 2 1.9448
D7 3 1.859
D7 4 1.7731999999999999
D8 1 2.009
D8 2 1.9516000000000002
D8 3 1.8655000000000002
D8 4 1.7793999999999999
D9 1 2.016
D9 2 1.9584000000000001
D9 3 1.872
D9 4 1.7856
D10 1 2.0229999999999997
D10 2 1.9652
D10 3 1.8784999999999998
D10 4 1.7918
D11 1 2.03
D11 2 1.9720000000000002
D11 3 1.885
D11 4 1.798
D12 1 2.037
D12 2 1.9788000000000003
D12 3 1.8915
D12 4 1.8041999999999998
D13 1 2.0439999999999996
D13 2 1.9856
D13 3 1.8980000000000001
D13 4 1.8104
D14 1 2.051
D14 2 1.9924000000000002
D14 3 1.9045
D14 4 1.8166
D15 1 2.058
D15 2 1.9992
D15 3 1.911
D15 4 1.8228
D16 1 2.065
D16 2 2.0060000000000002
D16 3 1.9175
D16 4 1.829
D17 1 2.072
D17 2 2.0128
D17 3 1.9240000000000002
D17 4 1.8352000000000002
D18 1 2.0789999999999997
D18 2 2.0196
D18 3 1.9305
D18 4 1.8414
D19 1 2.086
D19 2 2.0264
D19 3 1.9370000000000003
D19 4 1.8476
D20 1 2.093
D20 2 2.0332000000000003
D20 3 1.9435
D20 4 1.8538
D21 1 2.1
D21 2 2.0400000000000005
D21 3 1.95
D21 4 1.86
D22 1 2.1069999999999998
D22 2 2.0468
D22 3 1.9565000000000001
D22 4 1.8662
D23 1 2.114
D23 2 2.0536000000000003
D23 3 1.963
D23 4 1.8724
D24 1 2.121
D24 2 2.0604
D24 3 1.9695000000000003
D24 4 1.8785999999999998
D25 1 2.1279999999999997
D25 2 2.0672
D25 3 1.976
D25 4 1.8847999999999998
D26 1 2.135
D26 2 2.074
D26 3 1.9825
D26 4 1.891
D27 1 2.142
D27 2 2.0808
D27 3 1.989
D27 4 1.8972
D28 1 2.1489999999999996
D28 2 2.0876
D28 3 1.9955
D28 4 1.9034
D29 1 2.156
D29 2 2.0944000000000003
D29 3 2.0020000000000002
D29 4 1.9096000000000002
D30 1 2.163
D30 2 2.1012
D30 3 2.0084999999999997
D30 4 1.9158000000000002
D31 1 2.17
D31 2 2.108
D31 3 2.015
D31 4 1.922
D32 1 2.177
D32 2 2.1148000000000002
D32 3 2.0215
D32 4 1.9282
D33 1 2.1839999999999997
D33 2 2.1216000000000004
D33 3 2.028
D33 4 1.9344
D34 1 2.191
D34 2 2.1284
D34 3 2.0345
D34 4 1.9406
D35 1 2.198
D35 2 2.1352
D35 3 2.041
D35 4 1.9468
D36 1 2.205
D36 2 2.1420000000000003
D36 3 2.0475
D36 4 1.953
D37 1 2.2119999999999997
D37 2 2.1488
D37 3 2.0540000000000003
D37 4 1.9591999999999998
D38 1 2.219
D38 2 2.1556
D38 3 2.0605
D38 4 1.9653999999999998
D39 1 2.226
D39 2 2.1624
D39 3 2.067
D39 4 1.9716
D40 1 2.2329999999999997
D40 2 2.1692
D40 3 2.0735
D40 4 1.9778
D41 1 2.24
D41 2 2.176
D41 3 2.08
D41 4 1.984
D42 1 2.247
D42 2 2.1828000000000003
D42 3 2.0865
D42 4 1.9902000000000002
D43 1 2.2539999999999996
D43 2 2.1896
D43 3 2.093
D43 4 1.9964
D44 1 2.261
D44 2 2.1964
D44 3 2.0995000000000004
D44 4 2.0025999999999997
D45 1 2.268
D45 2 2.2032000000000003
D45 3 2.106
D45 4 2.0088
D46 1 2.275
D46 2 2.2100000000000004
D46 3 2.1125
D46 4 2.015
D47 1 2.282
D47 2 2.2168
D47 3 2.119
D47 4 2.0212
D48 1 2.2889999999999997
D48 2 2.2236000000000002
D48 3 2.1255
D48 4 2.0274
D49 1 2.296
D49 2 2.2304000000000004
D49 3 2.132
D49 4 2.0336
D50 1 2.303
D50 2 2.2372
D50 3 2.1385
D50 4 2.0398
D51 1 2.3099999999999996
D51 2 2.244
D51 3 2.145
D51 4 2.046
D52 1 2.3169999999999997
D52 2 2.2508
D52 3 2.1515
D52 4 2.0522
D53 1 2.324
D53 2 2.2576
D53 3 2.158
D53 4 2.0584000000000002
D54 1 2.331
D54 2 2.2644
D54 3 2.1645000000000003
D54 4 2.0646
D55 1 2.3379999999999996
D55 2 2.2712
D55 3 2.171
D55 4 2.0708
D56 1 2.3449999999999998
D56 2 2.278
D56 3 2.1775
D56 4 2.077
D57 1 2.352
D57 2 2.2848
D57 3 2.184
D57 4 2.0831999999999997
D58 1 2.359
D58 2 2.2916000000000003
D58 3 2.1905
D58 4 2.0894
D59 1 2.366
D59 2 2.2984
D59 3 2.197
D59 4 2.0956
D60 1 2.3729999999999998
D60 2 2.3052
D60 3 2.2035
D60 4 2.1018
D61 1 2.38
D61 2 2.3120000000000003
D61 3 2.21
D61 4 2.108
D62 1 2.387
D62 2 2.3188000000000004
D62 3 2.2165
D62 4 2.1142
D63 1 2.3939999999999997
D63 2 2.3256
D63 3 2.2230000000000003
D63 4 2.1204
D64 1 2.401
D64 2 2.3324000000000003
D64 3 2.2295000000000003
D64 4 2.1266
D65 1 2.408
D65 2 2.3392
D65 3 2.2359999999999998
D65 4 2.1328
D66 1 2.4149999999999996
D66 2 2.346
D66 3 2.2425
D66 4 2.1390000000000002
D67 1 2.4219999999999997
D67 2 2.3528000000000002
D67 3 2.249
D67 4 2.1452
D68 1 2.429
D68 2 2.3596
D68 3 2.2555
D68 4 2.1513999999999998
D69 1 2.436
D69 2 2.3664
D69 3 2.262
D69 4 2.1576
D70 1 2.4429999999999996
D70 2 2.3732
D70 3 2.2685
D70 4 2.1638
D71 1 2.4499999999999997
D71 2 2.3800000000000003
D71 3 2.275
D71 4 2.17
D72 1 2.457
D72 2 2.3868
D72 3 2.2815
D72 4 2.1762
D73 1 2.464
D73 2 2.3936
D73 3 2.2880000000000003
D73 4 2.1824
D74 1 2.471
D74 2 2.4004000000000003
D74 3 2.2945
D74 4 2.1885999999999997
D75 1 2.4779999999999998
D75 2 2.4072000000000005
D75 3 2.301
D75 4 2.1948
D76 1 2.485
D76 2 2.414
D76 3 2.3075
D76 4 2.201
D77 1 2.492
D77 2 2.4208000000000003
D77 3 2.314
D77 4 2.2072
D78 1 2.4989999999999997
D78 2 2.4276
D78 3 2.3205
D78 4 2.2134
D79 1 2.506
D79 2 2.4344
D79 3 2.327
D79 4 2.2196000000000002
D80 1 2.513
D80 2 2.4412000000000003
D80 3 2.3335
D80 4 2.2258
D81 1 2.5199999999999996
D81 2 2.448
D81 3 2.34
D81 4 2.2319999999999998
D82 1 2.5269999999999997
D82 2 2.4548
D82 3 2.3465000000000003
D82 4 2.2382
D83 1 2.534
D83 2 2.4616000000000002
D83 3 2.353
D83 4 2.2444
D84 1 2.541
D84 2 2.4684000000000004
D84 3 2.3595
D84 4 2.2506
D85 1 2.548
D85 2 2.4752
D85 3 2.366
D85 4 2.2568
D86 1 2.5549999999999997
D86 2 2.482
D86 3 2.3725
D86 4 2.263
D87 1 2.562
D87 2 2.4888000000000003
D87 3 2.379
D87 4 2.2691999999999997
D88 1 2.569
D88 2 2.4956000000000005
D88 3 2.3855
D88 4 2.2754
D89 1 2.5759999999999996
D89 2 2.5024
D89 3 2.3920000000000003
D89 4 2.2816
D90 1 2.583
D90 2 2.5092000000000003
D90 3 2.3985
D90 4 2.2878
D91 1 2.59
D91 2 2.516
D91 3 2.405
D91 4 2.294
D92 1 2.597
D92 2 2.5228
D92 3 2.4115
D92 4 2.3002000000000002
D93 1 2.6039999999999996
D93 2 2.5296000000000003
D93 3 2.418
D93 4 2.3064
;
set DNeg:=
;
param VOLL:=
D1 100000.0
D2 100000.0
D3 100000.0
D4 100000.0
D5 100000.0
D6 100000.0
D7 100000.0
D8 100000.0
D9 100000.0
D10 100000.0
D11 100000.0
D12 100000.0
D13 100000.0
D14 100000.0
D15 100000.0
D16 100000.0
D17 100000.0
D18 100000.0
D19 100000.0
D20 100000.0
D21 100000.0
D22 100000.0
D23 100000.0
D24 100000.0
D25 100000.0
D26 100000.0
D27 100000.0
D28 100000.0
D29 100000.0
D30 100000.0
D31 100000.0
D32 100000.0
D33 100000.0
D34 100000.0
D35 100000.0
D36 100000.0
D37 100000.0
D38 100000.0
D39 100000.0
D40 100000.0
D41 100000.0
D42 100000.0
D43 100000.0
D44 100000.0
D45 100000.0
D46 100000.0
D47 100000.0
D48 100000.0
D49 100000.0
D50 100000.0
D51 100000.0
D52 100000.0
D53 100000.0
D54 100000.0
D55 100000.0
D56 100000.0
D57 100000.0
D58 100000.0
D59 100000.0
D60 100000.0
D61 100000.0
D62 100000.0
D63 100000.0
D64 100000.0
D65 100000.0
D66 100000.0
D67 100000.0
D68 100000.0
D69 100000.0
D70 100000.0
D71 100000.0
D72 100000.0
D73 100000.0
D74 100000.0
D75 100000.0
D76 100000.0
D77 100000.0
D78 100000.0
D79 100000.0
D80 100000.0
D81 100000.0
D82 100000.0
D83 100000.0
D84 100000.0
D85 100000.0
D86 100000.0
D87 100000.0
D88 100000.0
D89 100000.0
D90 100000.0
D91 100000.0
D92 100000.0
D93 100000.0
;
param baseMVA:=
100
;
param PGmin:=
G1 6.6
G2 6.0
G3 6.0
G4 10.4
G5 6.0
G6 6.0
G7 42.0
G8 1.84
G9 3.75
G10 10.27
G11 4.5
G12 0.0
G13 0.0
G14 5.6
G15 6.0
G16 7.56
G17 7.56
G18 0.0
G19 6.0
G20 6.0
G21 8.5
G22 0.0
G23 1.75
G24 1.75
G25 0.0
G26 1.7619999999999998
G27 1.35
G28 0.0
G29 0.0
G30 0.0
G31 0.0
G32 0.11
G33 0.1
G34 0.75
G35 0.4
G36 1.3
G37 0.2
G38 2.4
G39 0.3
G40 0.0
G41 0.84
G42 1.0
G43 0.0
G44 0.68
G45 1.2
G46 0.68
G47 1.2
G48 0.68
G49 1.2
G50 0.0
G51 0.0
G52 0.2
G53 0.82
G54 1.2
G55 0.0
G56 2.04
G57 0.24
G58 1.0
G59 0.2
G60 0.55
G61 0.2
G62 5.5
;
param PGmax:=
G1 6.6
G2 6.6
G3 12.5
G4 10.5
G5 12.5
G6 2.0
G7 10.0
G8 1.8420699999999999
G9 3.75
G10 10.27
G11 4.5
G12 4.914
G13 6.46
G14 9.69
G15 11.2
G16 11.2
G17 10.5
G18 3.88
G19 6.4
G20 6.4
G21 5.5
G22 2.136
G23 3.43
G24 3.43
G25 6.5
G26 1.7619999999999998
G27 1.35
G28 2.2
G29 5.575
G30 3.71
G31 1.47
G32 0.11
G33 0.1
G34 0.75
G35 0.4
G36 1.3
G37 0.2
G38 2.4
G39 0.3
G40 1.7
G41 0.84
G42 1.0
G43 4.88
G44 2.136
G45 2.0
G46 1.92
G47 2.0
G48 2.0
G49 2.0
G50 1.2
G51 2.04
G52 0.2
G53 0.82
G54 2.0
G55 1.5
G56 2.53
G57 0.23
G58 2.4
G59 0.2
G60 0.55
G61 0.2
G62 14.5
;
param WGmin:=
Jhimpir-1_Wind_PP 1 0
Jhimpir-1_Wind_PP 2 0
Jhimpir-1_Wind_PP 3 0
Jhimpir-1_Wind_PP 4 0
Jhimpir-2_Wind_PP 1 0
Jhimpir-2_Wind_PP 2 0
Jhimpir-2_Wind_PP 3 0
Jhimpir-2_Wind_PP 4 0
Gharo_Wind_PP 1 0
Gharo_Wind_PP 2 0
Gharo_Wind_PP 3 0
Gharo_Wind_PP 4 0
Best-Green_Solar 1 0
Best-Green_Solar 2 0
Best-Green_Solar 3 0
Best-Green_Solar 4 0
Appolo-Solar 1 0
Appolo-Solar 2 0
Appolo-Solar 3 0
Appolo-Solar 4 0
Crest-Energy_Solar 1 0
Crest-Energy_Solar 2 0
Crest-Energy_Solar 3 0
Crest-Energy_Solar 4 0
Quid-e-Azam_Solar 1 0
Quid-e-Azam_Solar 2 0
Quid-e-Azam_Solar 3 0
Quid-e-Azam_Solar 4 0
;
param WGmax:=
Jhimpir-1_Wind_PP 1 6.2
Jhimpir-1_Wind_PP 2 6.25
Jhimpir-1_Wind_PP 3 6.0
Jhimpir-1_Wind_PP 4 6.15
Jhimpir-2_Wind_PP 1 0.9
Jhimpir-2_Wind_PP 2 0.95
Jhimpir-2_Wind_PP 3 0.8
Jhimpir-2_Wind_PP 4 0.86
Gharo_Wind_PP 1 0.6
Gharo_Wind_PP 2 0.65
Gharo_Wind_PP 3 0.6
Gharo_Wind_PP 4 0.66
Best-Green_Solar 1 0.46
Best-Green_Solar 2 0.5
Best-Green_Solar 3 0.4
Best-Green_Solar 4 0.44
Appolo-Solar 1 0.45
Appolo-Solar 2 0.5
Appolo-Solar 3 0.4
Appolo-Solar 4 0.44
Crest-Energy_Solar 1 0.46
Crest-Energy_Solar 2 0.5
Crest-Energy_Solar 3 0.4
Crest-Energy_Solar 4 0.44
Quid-e-Azam_Solar 1 0.45
Quid-e-Azam_Solar 2 0.5
Quid-e-Azam_Solar 3 0.4
Quid-e-Azam_Solar 4 0.44
;
param bid:=
Jhimpir-1_Wind_PP 2
Jhimpir-2_Wind_PP 2
Gharo_Wind_PP 2
Best-Green_Solar 2
Appolo-Solar 2
Crest-Energy_Solar 2
Quid-e-Azam_Solar 2
;
param ResReq:=
1 3.0
;
param RampUp:=
G1 0.1
G2 0.1
G3 0.1
G4 0.1
G5 0.1
G6 0.1
G7 0.1
G8 0.1
G9 0.1
G10 0.1
G11 0.1
G12 0.1
G13 0.1
G14 0.1
G15 0.1
G16 0.1
G17 0.1
G18 0.1
G19 0.1
G20 0.1
G21 0.1
G22 0.1
G23 0.1
G24 0.1
G25 0.1
G26 0.1
G27 0.1
G28 0.1
G29 0.1
G30 0.1
G31 0.1
G32 0.1
G33 0.1
G34 0.1
G35 0.1
G36 0.1
G37 0.1
G38 0.1
G39 0.1
G40 0.1
G41 0.1
G42 0.1
G43 0.1
G44 0.1
G45 0.1
G46 0.1
G47 0.1
G48 0.1
G49 0.1
G50 0.1
G51 0.1
G52 0.1
G53 0.1
G54 0.1
G55 0.1
G56 0.1
G57 0.1
G58 0.1
G59 0.1
G60 0.1
G61 0.1
G62 0.1
;
param RampDown:=
G1 3.168
G2 3.9600000000000004
G3 7.5
G4 7.0
G5 15.0
G6 30.0
G7 30.0
G8 1.0
G9 1.0
G10 1.0
G11 1.0
G12 20.343960000000003
G13 7.752000000000001
G14 30.0
G15 26.880000000000006
G16 26.880000000000006
G17 25.2
G18 6.21576
G19 30.0
G20 30.0
G21 30.0
G22 3.8447999999999998
G23 6.1739999999999995
G24 6.1739999999999995
G25 7.8
G26 3.1715999999999998
G27 1.7901000000000002
G28 8.58
G29 23.415000000000006
G30 2.69346
G31 1.764
G32 1.0
G33 30.0
G34 30.0
G35 30.0
G36 30.0
G37 30.0
G38 30.0
G39 30.0
G40 30.0
G41 30.0
G42 30.0
G43 7.26144
G44 3.8447999999999998
G45 3.6
G46 3.4559999999999995
G47 3.6
G48 3.6
G49 3.6
G50 2.1599999999999997
G51 6.120000000000001
G52 30.0
G53 30.0
G54 3.6
G55 3.7439999999999998
G56 7.59
G57 30.0
G58 30.0
G59 30.0
G60 30.0
G61 30.0
G62 30.0
;
param MinUpTime:=
G1 1.0
G2 1.0
G3 1.0
G4 1.0
G5 1.0
G6 1.0
G7 1.0
G8 1.0
G9 1.0
G10 1.0
G11 1.0
G12 1.0
G13 1.0
G14 1.0
G15 1.0
G16 1.0
G17 1.0
G18 1.0
G19 1.0
G20 1.0
G21 1.0
G22 1.0
G23 1.0
G24 1.0
G25 1.0
G26 1.0
G27 1.0
G28 1.0
G29 1.0
G30 1.0
G31 1.0
G32 1.0
G33 1.0
G34 1.0
G35 1.0
G36 1.0
G37 1.0
G38 1.0
G39 1.0
G40 1.0
G41 1.0
G42 1.0
G43 1.0
G44 1.0
G45 1.0
G46 1.0
G47 1.0
G48 1.0
G49 1.0
G50 1.0
G51 1.0
G52 1.0
G53 1.0
G54 1.0
G55 1.0
G56 1.0
G57 1.0
G58 1.0
G59 1.0
G60 1.0
G61 1.0
G62 1.0
;
param MinDownTime:=
G1 1.0
G2 1.0
G3 1.0
G4 1.0
G5 1.0
G6 1.0
G7 1.0
G8 1.0
G9 1.0
G10 1.0
G11 1.0
G12 1.0
G13 1.0
G14 1.0
G15 1.0
G16 1.0
G17 1.0
G18 1.0
G19 1.0
G20 1.0
G21 1.0
G22 1.0
G23 1.0
G24 1.0
G25 1.0
G26 1.0
G27 1.0
G28 1.0
G29 1.0
G30 1.0
G31 1.0
G32 1.0
G33 1.0
G34 1.0
G35 1.0
G36 1.0
G37 1.0
G38 1.0
G39 1.0
G40 1.0
G41 1.0
G42 1.0
G43 1.0
G44 1.0
G45 1.0
G46 1.0
G47 1.0
G48 1.0
G49 1.0
G50 1.0
G51 1.0
G52 1.0
G53 1.0
G54 1.0
G55 1.0
G56 1.0
G57 1.0
G58 1.0
G59 1.0
G60 1.0
G61 1.0
G62 1.0
;
param c2:=
G1 0
G2 0
G3 0
G4 0
G5 0
G6 0
G7 0
G8 0
G9 0
G10 0
G11 0
G12 0
G13 0
G14 0
G15 0
G16 0
G17 0
G18 0
G19 0
G20 0
G21 0
G22 0
G23 0
G24 0
G25 0
G26 0
G27 0
G28 0
G29 0
G30 0
G31 0
G32 0
G33 0
G34 0
G35 0
G36 0
G37 0
G38 0
G39 0
G40 0
G41 0
G42 0
G43 0
G44 0
G45 0
G46 0
G47 0
G48 0
G49 0
G50 0
G51 0
G52 0
G53 0
G54 0
G55 0
G56 0
G57 0
G58 0
G59 0
G60 0
G61 0
G62 0
;
param c1:=
G1 29.34
G2 3.63
G3 26.61
G4 20.0
G5 26.34
G6 0.043
G7 0.043
G8 25.0
G9 30.0
G10 30.0
G11 30.0
G12 7.38
G13 39.18
G14 9.11
G15 25.22
G16 25.0
G17 25.66
G18 33.99
G19 20.0
G20 20.0
G21 0.067
G22 37.11
G23 38.0
G24 45.56
G25 32.0
G26 7.62
G27 7.99
G28 11.03
G29 2.09
G30 8.33
G31 35.67
G32 35.0
G33 0.275
G34 0.7
G35 0.334
G36 0.215
G37 0.211
G38 0.251
G39 2.59
G40 33.03
G41 0.48
G42 0.194
G43 31.61
G44 35.0
G45 31.2
G46 36.0
G47 31.2
G48 33.7
G49 31.2
G50 35.44
G51 3.0
G52 0.267
G53 0.191
G54 31.2
G55 36.09
G56 36.0
G57 7.067
G58 0.107
G59 0.107
G60 35.0
G61 0.157
G62 0.079
;
param c0:=
G1 0
G2 0
G3 0
G4 0
G5 0
G6 0
G7 0
G8 0
G9 0
G10 0
G11 0
G12 0
G13 0
G14 0
G15 0
G16 0
G17 0
G18 0
G19 0
G20 0
G21 0
G22 0
G23 0
G24 0
G25 0
G26 0
G27 0
G28 0
G29 0
G30 0
G31 0
G32 0
G33 0
G34 0
G35 0
G36 0
G37 0
G38 0
G39 0
G40 0
G41 0
G42 0
G43 0
G44 0
G45 0
G46 0
G47 0
G48 0
G49 0
G50 0
G51 0
G52 0
G53 0
G54 0
G55 0
G56 0
G57 0
G58 0
G59 0
G60 0
G61 0
G62 0
;
param SDcosts:=
G1 0
G2 0
G3 0
G4 0
G5 0
G6 0
G7 0
G8 0
G9 0
G10 0
G11 0
G12 0
G13 0
G14 0
G15 0
G16 0
G17 0
G18 0
G19 0
G20 0
G21 0
G22 0
G23 0
G24 0
G25 0
G26 0
G27 0
G28 0
G29 0
G30 0
G31 0
G32 0
G33 0
G34 0
G35 0
G36 0
G37 0
G38 0
G39 0
G40 0
G41 0
G42 0
G43 0
G44 0
G45 0
G46 0
G47 0
G48 0
G49 0
G50 0
G51 0
G52 0
G53 0
G54 0
G55 0
G56 0
G57 0
G58 0
G59 0
G60 0
G61 0
G62 0
;
param SUcosts:=
G1 0
G2 0
G3 0
G4 0
G5 0
G6 0
G7 0
G8 0
G9 0
G10 0
G11 0
G12 0
G13 0
G14 0
G15 0
G16 0
G17 0
G18 0
G19 0
G20 0
G21 0
G22 0
G23 0
G24 0
G25 0
G26 0
G27 0
G28 0
G29 0
G30 0
G31 0
G32 0
G33 0
G34 0
G35 0
G36 0
G37 0
G38 0
G39 0
G40 0
G41 0
G42 0
G43 0
G44 0
G45 0
G46 0
G47 0
G48 0
G49 0
G50 0
G51 0
G52 0
G53 0
G54 0
G55 0
G56 0
G57 0
G58 0
G59 0
G60 0
G61 0
G62 0
;
set UCMinUpT:=
;
set UCMinDownT:=
;
